; generated by Theta
; https://github.com/ftsrg/theta/

(set-logic HORN)

; declarations
(declare-fun main_init_0 ((_ BitVec 32) (_ BitVec 1) (_ BitVec 32) (_ FloatingPoint 8 24)) Bool)
(declare-fun main_final_2 ((_ BitVec 32) (_ BitVec 1) (_ BitVec 32) (_ FloatingPoint 8 24)) Bool)
(declare-fun __loc_32112_1 ((_ BitVec 32) (_ BitVec 1) (_ BitVec 32) (_ FloatingPoint 8 24)) Bool)
(declare-fun main_error_3 ((_ BitVec 32) (_ BitVec 1) (_ BitVec 32) (_ FloatingPoint 8 24)) Bool)

; facts, rules, queries
(assert (forall ((|__VERIFIER_assert::cond| (_ BitVec 32)) (|__VERIFIER_assert_ret| (_ BitVec 1)) (|main_ret| (_ BitVec 32)) (|main::r| (_ FloatingPoint 8 24))) (=> true (main_init_0 |__VERIFIER_assert::cond| |__VERIFIER_assert_ret| |main_ret| |main::r|))))
(assert (forall ((|__VERIFIER_assert::cond| (_ BitVec 32)) (|__VERIFIER_assert_ret_new| (_ BitVec 1)) (|main_ret_new| (_ BitVec 32)) (|main::r| (_ FloatingPoint 8 24)) (|__VERIFIER_assert_ret| (_ BitVec 1)) (|main_ret| (_ BitVec 32))) (=> (and (__loc_32112_1 |__VERIFIER_assert::cond| |__VERIFIER_assert_ret| |main_ret| |main::r|) (and (and (not (= |__VERIFIER_assert::cond| #b00000000000000000000000000000000)) (= |__VERIFIER_assert_ret_new| #b0)) (= |main_ret_new| #b00000000000000000000000000000000))) (main_final_2 |__VERIFIER_assert::cond| |__VERIFIER_assert_ret_new| |main_ret_new| |main::r|))))
(assert (forall ((|__VERIFIER_assert::cond_new| (_ BitVec 32)) (|__VERIFIER_assert_ret| (_ BitVec 1)) (|main_ret| (_ BitVec 32)) (|main::r_new| (_ FloatingPoint 8 24)) (|__VERIFIER_assert::cond| (_ BitVec 32)) (|main::r| (_ FloatingPoint 8 24))) (=> (and (main_init_0 |__VERIFIER_assert::cond| |__VERIFIER_assert_ret| |main_ret| |main::r|) (and (= |main::r_new| (fp #b0  #b00000000 #b00000000000000000000000)) (= |__VERIFIER_assert::cond_new| (ite (fp.eq |main::r_new| (fp #b0  #b00000000 #b00000000000000000000000)) #b00000000000000000000000000000001 #b00000000000000000000000000000000)))) (__loc_32112_1 |__VERIFIER_assert::cond_new| |__VERIFIER_assert_ret| |main_ret| |main::r_new|))))
(assert (forall ((|__VERIFIER_assert::cond| (_ BitVec 32)) (|__VERIFIER_assert_ret| (_ BitVec 1)) (|main_ret| (_ BitVec 32)) (|main::r| (_ FloatingPoint 8 24))) (=> (and (__loc_32112_1 |__VERIFIER_assert::cond| |__VERIFIER_assert_ret| |main_ret| |main::r|) (= |__VERIFIER_assert::cond| #b00000000000000000000000000000000)) (main_error_3 |__VERIFIER_assert::cond| |__VERIFIER_assert_ret| |main_ret| |main::r|))))
(assert (forall ((|__VERIFIER_assert::cond| (_ BitVec 32)) (|__VERIFIER_assert_ret| (_ BitVec 1)) (|main_ret| (_ BitVec 32)) (|main::r| (_ FloatingPoint 8 24))) (=> (main_error_3 |__VERIFIER_assert::cond| |__VERIFIER_assert_ret| |main_ret| |main::r|) false)))

(check-sat)
(exit)